p edge 67 679
e 1 2
e 1 14
e 1 16
e 1 18
e 1 20
e 1 26
e 1 27
e 1 28
e 1 30
e 1 37
e 1 38
e 1 47
e 1 50
e 1 56
e 1 59
e 1 60
e 1 64
e 2 5
e 2 8
e 2 11
e 2 19
e 2 23
e 2 24
e 2 28
e 2 34
e 2 42
e 2 44
e 2 46
e 2 49
e 2 53
e 2 54
e 2 56
e 2 57
e 2 60
e 2 64
e 3 5
e 3 8
e 3 11
e 3 13
e 3 16
e 3 20
e 3 22
e 3 31
e 3 36
e 3 37
e 3 38
e 3 40
e 3 42
e 3 45
e 3 47
e 3 48
e 3 49
e 3 51
e 3 52
e 3 53
e 3 59
e 3 66
e 4 13
e 4 15
e 4 20
e 4 21
e 4 22
e 4 25
e 4 33
e 4 37
e 4 39
e 4 41
e 4 43
e 4 51
e 4 58
e 4 59
e 4 64
e 5 7
e 5 10
e 5 14
e 5 16
e 5 18
e 5 21
e 5 22
e 5 23
e 5 26
e 5 30
e 5 31
e 5 35
e 5 37
e 5 38
e 5 39
e 5 46
e 5 47
e 5 57
e 5 66
e 6 8
e 6 10
e 6 13
e 6 16
e 6 20
e 6 22
e 6 23
e 6 27
e 6 39
e 6 46
e 6 50
e 6 56
e 6 57
e 6 64
e 6 66
e 6 67
e 7 8
e 7 9
e 7 12
e 7 14
e 7 16
e 7 21
e 7 22
e 7 28
e 7 29
e 7 31
e 7 40
e 7 41
e 7 49
e 7 57
e 7 59
e 7 62
e 7 64
e 8 9
e 8 13
e 8 17
e 8 19
e 8 21
e 8 24
e 8 25
e 8 29
e 8 32
e 8 44
e 8 45
e 8 48
e 8 49
e 8 51
e 8 55
e 8 57
e 8 58
e 8 59
e 8 65
e 8 67
e 9 10
e 9 18
e 9 20
e 9 21
e 9 23
e 9 24
e 9 26
e 9 27
e 9 28
e 9 34
e 9 37
e 9 38
e 9 40
e 9 42
e 9 44
e 9 45
e 9 50
e 9 53
e 9 55
e 9 64
e 10 11
e 10 14
e 10 26
e 10 34
e 10 37
e 10 39
e 10 40
e 10 42
e 10 45
e 10 46
e 10 47
e 10 49
e 10 52
e 10 53
e 10 57
e 10 58
e 10 66
e 11 12
e 11 14
e 11 16
e 11 18
e 11 22
e 11 33
e 11 37
e 11 38
e 11 41
e 11 45
e 11 47
e 11 50
e 11 51
e 11 55
e 11 60
e 11 63
e 12 14
e 12 18
e 12 26
e 12 29
e 12 35
e 12 36
e 12 38
e 12 47
e 12 54
e 12 57
e 12 59
e 12 62
e 12 63
e 13 16
e 13 25
e 13 28
e 13 29
e 13 30
e 13 39
e 13 41
e 13 42
e 13 43
e 13 45
e 13 50
e 13 52
e 13 54
e 13 55
e 13 56
e 13 58
e 13 65
e 14 17
e 14 18
e 14 19
e 14 24
e 14 25
e 14 26
e 14 30
e 14 33
e 14 37
e 14 38
e 14 43
e 14 45
e 14 46
e 14 50
e 14 57
e 14 58
e 15 17
e 15 19
e 15 21
e 15 22
e 15 23
e 15 25
e 15 28
e 15 29
e 15 31
e 15 34
e 15 35
e 15 37
e 15 41
e 15 42
e 15 43
e 15 44
e 15 45
e 15 54
e 15 61
e 16 19
e 16 24
e 16 30
e 16 31
e 16 34
e 16 35
e 16 36
e 16 39
e 16 43
e 16 50
e 16 51
e 16 57
e 16 59
e 16 61
e 16 65
e 16 66
e 16 67
e 17 19
e 17 23
e 17 29
e 17 31
e 17 32
e 17 41
e 17 43
e 17 48
e 17 52
e 17 55
e 17 59
e 18 21
e 18 24
e 18 30
e 18 32
e 18 35
e 18 38
e 18 40
e 18 49
e 18 52
e 18 58
e 18 59
e 18 61
e 18 64
e 18 66
e 19 21
e 19 23
e 19 25
e 19 26
e 19 29
e 19 30
e 19 41
e 19 43
e 19 48
e 19 50
e 19 53
e 19 55
e 19 58
e 19 60
e 19 64
e 19 65
e 19 66
e 20 23
e 20 25
e 20 28
e 20 32
e 20 34
e 20 35
e 20 36
e 20 37
e 20 41
e 20 44
e 20 45
e 20 49
e 20 53
e 20 56
e 20 59
e 20 60
e 20 61
e 21 22
e 21 23
e 21 24
e 21 26
e 21 27
e 21 37
e 21 38
e 21 39
e 21 48
e 21 50
e 21 55
e 21 56
e 21 58
e 21 59
e 21 61
e 22 24
e 22 28
e 22 29
e 22 30
e 22 34
e 22 37
e 22 41
e 22 42
e 22 47
e 22 53
e 22 59
e 22 60
e 22 64
e 23 24
e 23 25
e 23 31
e 23 37
e 23 38
e 23 40
e 23 42
e 23 49
e 23 52
e 23 54
e 23 55
e 23 57
e 23 63
e 23 66
e 24 25
e 24 26
e 24 29
e 24 32
e 24 34
e 24 36
e 24 38
e 24 49
e 24 53
e 24 55
e 24 56
e 24 58
e 24 59
e 24 61
e 24 64
e 25 30
e 25 31
e 25 33
e 25 35
e 25 38
e 25 40
e 25 43
e 25 48
e 25 54
e 25 56
e 25 57
e 25 58
e 25 59
e 26 29
e 26 30
e 26 32
e 26 35
e 26 36
e 26 41
e 26 45
e 26 53
e 26 59
e 26 67
e 27 29
e 27 35
e 27 40
e 27 41
e 27 42
e 27 43
e 27 44
e 27 45
e 27 46
e 27 48
e 27 52
e 27 53
e 27 56
e 27 57
e 27 61
e 27 63
e 28 29
e 28 37
e 28 39
e 28 48
e 28 64
e 29 30
e 29 32
e 29 33
e 29 35
e 29 37
e 29 47
e 29 54
e 29 59
e 29 60
e 29 64
e 29 67
e 30 34
e 30 44
e 30 49
e 30 50
e 30 54
e 30 56
e 30 67
e 31 34
e 31 35
e 31 37
e 31 43
e 31 47
e 31 48
e 31 54
e 31 55
e 31 56
e 31 57
e 31 58
e 31 60
e 31 63
e 31 66
e 31 67
e 32 35
e 32 37
e 32 38
e 32 40
e 32 41
e 32 45
e 32 46
e 32 53
e 32 54
e 32 55
e 32 57
e 32 60
e 32 65
e 33 35
e 33 39
e 33 41
e 33 44
e 33 49
e 33 53
e 33 56
e 33 57
e 33 59
e 34 48
e 34 60
e 34 63
e 34 64
e 34 66
e 35 39
e 35 40
e 35 44
e 35 45
e 35 46
e 35 51
e 35 55
e 35 56
e 35 57
e 35 58
e 35 59
e 35 60
e 35 64
e 35 66
e 36 43
e 36 46
e 36 51
e 36 55
e 36 57
e 36 58
e 36 63
e 36 64
e 37 39
e 37 40
e 37 41
e 37 43
e 37 44
e 37 50
e 37 55
e 37 62
e 37 66
e 37 67
e 38 40
e 38 41
e 38 44
e 38 47
e 38 49
e 38 55
e 38 57
e 38 64
e 38 65
e 38 66
e 39 49
e 39 50
e 39 53
e 39 58
e 39 60
e 39 63
e 39 64
e 40 41
e 40 45
e 40 50
e 40 52
e 40 59
e 40 61
e 40 65
e 41 46
e 41 54
e 41 55
e 41 58
e 41 59
e 41 60
e 41 64
e 41 65
e 42 43
e 42 44
e 42 48
e 42 49
e 42 52
e 42 54
e 42 58
e 42 60
e 42 61
e 42 63
e 43 47
e 43 51
e 43 53
e 43 55
e 43 56
e 43 60
e 43 62
e 43 64
e 43 66
e 44 46
e 44 47
e 44 50
e 44 51
e 44 53
e 44 55
e 44 59
e 44 65
e 45 47
e 45 48
e 45 50
e 45 53
e 45 54
e 45 60
e 45 62
e 45 64
e 45 66
e 45 67
e 46 49
e 46 53
e 46 55
e 46 56
e 46 58
e 46 62
e 46 63
e 47 53
e 47 56
e 47 64
e 47 65
e 47 66
e 47 67
e 48 55
e 48 56
e 48 57
e 48 58
e 48 60
e 48 61
e 48 62
e 48 65
e 49 51
e 49 62
e 50 53
e 50 55
e 50 58
e 50 62
e 50 65
e 51 54
e 51 56
e 51 59
e 51 61
e 51 64
e 51 66
e 51 67
e 52 56
e 52 60
e 52 61
e 52 63
e 52 65
e 53 54
e 53 55
e 53 57
e 53 58
e 53 62
e 53 65
e 53 67
e 54 55
e 54 56
e 54 62
e 54 64
e 54 67
e 55 57
e 55 61
e 55 62
e 56 60
e 57 60
e 57 61
e 57 62
e 57 63
e 57 64
e 57 66
e 57 67
e 58 59
e 58 62
e 58 63
e 58 67
e 59 63
e 59 64
e 59 66
e 60 62
e 61 62
e 61 63
e 61 65
e 61 66
e 61 67
e 62 67
e 65 66
e 66 67
